sat
(model 
  (define-fun t () Bool false)
  (define-fun z () Bool false)
  (define-fun y () Bool false)
  (define-fun v () Bool false)
  (define-fun u () Bool false)
  (define-fun q () Bool true)
  (define-fun r () Bool false)
  (define-fun p () Bool false)
  (define-fun s () Bool false)
)

